33D32945 STP File, STP Format Version 1.0
SECTION Comment
        Name    "Traversed Topology"
        Creator "Ruben Eschauzier"
        Problem "SAP"
        Remark  "Traversed topology during Link Traversal-based Query Processing"
        END

SECTION Graph 
Nodes 126
Arcs 131
A 1 2 1
A 1 3 1
A 2 4 1
A 2 5 1
A 2 3 1
A 2 6 1
A 2 7 1
A 3 8 1
A 3 9 1
A 3 10 1
A 3 11 1
A 3 12 1
A 3 13 1
A 3 14 1
A 3 15 1
A 3 16 1
A 3 17 1
A 3 18 1
A 3 19 1
A 3 20 1
A 3 21 1
A 3 22 1
A 3 23 1
A 3 24 1
A 3 25 1
A 3 26 1
A 3 27 1
A 3 28 1
A 3 29 1
A 3 30 1
A 3 31 1
A 3 32 1
A 3 33 1
A 3 34 1
A 3 35 1
A 3 36 1
A 3 37 1
A 3 38 1
A 3 39 1
A 3 40 1
A 3 41 1
A 3 42 1
A 3 43 1
A 3 44 1
A 4 1 1
A 5 82 1
A 5 83 1
A 5 84 1
A 5 85 1
A 5 86 1
A 5 87 1
A 5 88 1
A 5 89 1
A 5 90 1
A 5 91 1
A 5 92 1
A 5 93 1
A 5 94 1
A 5 95 1
A 5 96 1
A 5 97 1
A 5 98 1
A 5 99 1
A 5 100 1
A 5 101 1
A 5 102 1
A 5 103 1
A 5 104 1
A 5 105 1
A 5 106 1
A 5 107 1
A 5 108 1
A 5 109 1
A 5 110 1
A 5 111 1
A 5 112 1
A 5 113 1
A 5 114 1
A 5 115 1
A 5 116 1
A 5 117 1
A 5 118 1
A 5 119 1
A 5 120 1
A 6 45 1
A 7 69 1
A 7 70 1
A 7 71 1
A 7 72 1
A 7 73 1
A 7 74 1
A 7 75 1
A 7 76 1
A 7 77 1
A 8 46 1
A 9 63 1
A 10 121 1
A 11 47 1
A 12 58 1
A 13 50 1
A 14 64 1
A 15 125 1
A 16 124 1
A 17 126 1
A 18 78 1
A 19 123 1
A 20 47 1
A 21 54 1
A 22 49 1
A 23 122 1
A 24 51 1
A 25 48 1
A 26 59 1
A 27 47 1
A 28 79 1
A 29 78 1
A 30 62 1
A 31 53 1
A 32 81 1
A 33 52 1
A 34 60 1
A 35 65 1
A 36 47 1
A 37 66 1
A 38 55 1
A 39 80 1
A 40 57 1
A 41 67 1
A 42 56 1
A 43 61 1
A 44 68 1
END

SECTION Terminals
Terminals 4
Root 1
T 1
T 18
T 27
T 36
END

EOF